NAME : 10_3_3_3_(38).dat
COMMENT : Henke, Speranza, Wäscher, 2015
TYPE : MCVRP
DIMENSION : 11
EDGE_WEIGHT_TYPE : DISTANCE_MATRIX
CAPACITY : 1000
VEHICLES : 2
PRODUCT TYPES : 3
COMPARTMENTS : 3
NODE_COORD_SECTION
1 50 50
2 68.1 9.99
3 2.42 68.34
4 40.1 10.14
5 86.02 27.76
6 14.54 17.08
7 83.5 3.92
8 60.58 40.34
9 17.64 8.77
10 5.46 80.85
11 18.27 48.22
DEMAND_SECTION
1 0 0 0
2 107 60 59
3 132 79 31
4 4 29 8
5 10 10 20
6 76 56 34
7 14 55 4
8 103 9 29
9 72 46 8
10 29 40 16
11 100 6 49
DEPOT_SECTION
1
EOF